p tw 131 146
1 2
2 44
3 14
4 5
5 6
6 7
7 8
8 9
9 10
10 11
11 12
12 13
13 15
14 25
15 16
16 17
17 18
18 35
19 20
20 21
21 22
22 87
23 24
24 26
25 36
26 27
27 28
27 33
28 29
29 30
30 31
31 32
32 76
33 34
34 35
35 37
36 38
36 40
38 39
39 35
40 41
41 42
42 43
43 45
44 55
45 46
46 47
46 60
47 48
48 49
48 57
49 50
50 51
51 52
52 53
53 54
53 57
54 56
55 66
56 57
56 63
57 58
58 59
59 43
60 61
61 62
62 35
63 64
64 65
65 67
66 77
67 68
67 72
68 69
69 70
70 71
71 72
72 73
73 74
74 75
75 76
76 78
77 88
78 79
79 80
80 81
80 83
81 82
82 35
83 84
84 85
85 86
86 87
87 89
88 99
89 90
90 91
90 23
91 92
92 93
93 94
93 19
94 95
95 96
96 97
97 98
97 19
98 100
99 110
99 40
100 101
101 102
101 114
102 103
103 104
104 105
105 106
106 107
106 114
107 108
108 109
109 111
110 121
111 112
112 113
113 114
113 19
114 115
115 116
116 117
117 118
117 126
118 119
119 120
120 122
121 3
122 123
123 124
124 125
125 126
126 127
127 128
128 129
129 130
130 131
131 4
